TOUR_SECTION
35
4
6
62
75
8
61
67
100
19
47
31
54
84
56
65
44
48
87
1
60
43
99
11
89
30
79
63
5
98
51
73
92
50
42
38
17
34
28
68
45
40
88
10
29
23
16
82
55
83
12
14
36
78
18
32
85
58
9
57
37
94
15
93
96
39
76
20
2
25
90
33
3
91
95
80
41
97
71
64
52
70
81
21
26
66
74
7
69
24
22
77
27
49
59
53
13
86
72
-1
